
Value of objective function: 79.00000000

Actual values of the variables:
t1                              1
t2                              1
t3                              1
t4                              0
t5                              1
t6                              1
t7                              1
t8                              0
t9                              1
t10                             1
t11                             1
t12                             1
t13                             1
t14                             1
t15                             1
t16                             0
t17                             0
t18                             1
t19                             1
t20                             1
t21                             1
t22                             1
t23                             1
t24                             1
t25                             1
t26                             1
t27                             1
t28                             1
t29                             1
t30                             1
t31                             1
t32                             0
t33                             1
t34                             1
t35                             1
t36                             1
t37                             1
t38                             1
t39                             1
t40                             1
t41                             0
t42                             1
t43                             1
t44                             1
t45                             0
t46                             1
t47                             1
t48                             1
t49                             0
t50                             1
t51                             1
t52                             0
t53                             0
t54                             1
t55                             1
t56                             0
t57                             0
t58                             0
t59                             0
t60                             1
t61                             0
t62                             1
t63                             1
t64                             0
t65                             0
t66                             0
t67                             1
t68                             1
t69                             0
t70                             0
t71                             1
t72                             1
t73                             1
t74                             0
t75                             1
t76                             0
t77                             1
t78                             1
t79                             0
t80                             0
t81                             1
t82                             0
t83                             1
t84                             1
t85                             0
t86                             0
t87                             0
t88                             1
t89                             1
t90                             0
t91                             1
t92                             0
t93                             1
t94                             0
t95                             1
t96                             0
t97                             0
t98                             1
t99                             1
t100                            1
t101                            1
t102                            0
t103                            1
t104                            1
t105                            1
t106                            0
t107                            1
t108                            1
t109                            0
t110                            1
t111                            1
t112                            1
t113                            0
t114                            1
t115                            0
t116                            0
t117                            0
t118                            0
t119                            0
t120                            0
t121                            0
t122                            1
t123                            0
t124                            0
t125                            0
t126                            0
t127                            0
t128                            0
t129                            0
t130                            0
t131                            1
